clingo version 5.7.2
Reading from ../axioms/dec_clingo.lp ...
Solving...
Answer: 1 (Time: 0.946s)
happens(drop(nathan,apple),0) holdsAt(height(apple,35),0) holdsAt(falling(apple),1) holdsAt(height(apple,34),1) holdsAt(falling(apple),2) holdsAt(falling(apple),3) holdsAt(falling(apple),4) holdsAt(falling(apple),5) holdsAt(falling(apple),6) holdsAt(falling(apple),7) holdsAt(falling(apple),8) holdsAt(falling(apple),9) holdsAt(falling(apple),10) holdsAt(falling(apple),11) holdsAt(falling(apple),12) holdsAt(falling(apple),13) holdsAt(falling(apple),14) holdsAt(falling(apple),15) holdsAt(falling(apple),16) holdsAt(falling(apple),17) holdsAt(falling(apple),18) holdsAt(falling(apple),19) holdsAt(falling(apple),20) holdsAt(falling(apple),21) holdsAt(falling(apple),22) holdsAt(falling(apple),23) holdsAt(falling(apple),24) holdsAt(falling(apple),25) holdsAt(falling(apple),26) holdsAt(falling(apple),27) holdsAt(falling(apple),28) holdsAt(falling(apple),29) holdsAt(falling(apple),30) holdsAt(falling(apple),31) holdsAt(falling(apple),32) holdsAt(falling(apple),33) holdsAt(falling(apple),34) holdsAt(falling(apple),35) holdsAt(height(apple,0),35) holdsAt(height(apple,0),36) holdsAt(height(apple,0),37) holdsAt(height(apple,0),38) holdsAt(height(apple,0),39) holdsAt(height(apple,0),40) holdsAt(height(apple,1),34) holdsAt(height(apple,2),33) holdsAt(height(apple,3),32) holdsAt(height(apple,4),31) holdsAt(height(apple,5),30) holdsAt(height(apple,6),29) holdsAt(height(apple,7),28) holdsAt(height(apple,8),27) holdsAt(height(apple,9),26) holdsAt(height(apple,10),25) holdsAt(height(apple,11),24) holdsAt(height(apple,12),23) holdsAt(height(apple,13),22) holdsAt(height(apple,14),21) holdsAt(height(apple,15),20) holdsAt(height(apple,16),19) holdsAt(height(apple,17),18) holdsAt(height(apple,18),17) holdsAt(height(apple,19),16) holdsAt(height(apple,20),15) holdsAt(height(apple,21),14) holdsAt(height(apple,22),13) holdsAt(height(apple,23),12) holdsAt(height(apple,24),11) holdsAt(height(apple,25),10) holdsAt(height(apple,26),9) holdsAt(height(apple,27),8) holdsAt(height(apple,28),7) holdsAt(height(apple,29),6) holdsAt(height(apple,30),5) holdsAt(height(apple,31),4) holdsAt(height(apple,32),3) holdsAt(height(apple,33),2) happens(hitGround(apple),35)
SATISFIABLE

Models       : 1
Calls        : 1
Time         : 0.948s (Solving: 0.00s 1st Model: 0.00s Unsat: 0.00s)
CPU Time     : 0.936s
